c colouring generated by benchmark framework
p edge 100 1470
v 1 5
v 2 4
v 3 3
v 4 11
v 5 7
v 6 2
v 7 10
v 8 9
v 9 12
v 10 6
v 11 3
v 12 6
v 13 12
v 14 9
v 15 1
v 16 8
v 17 11
v 18 5
v 19 7
v 20 10
v 21 4
v 22 10
v 23 1
v 24 3
v 25 5
v 26 7
v 27 0
v 28 8
v 29 6
v 30 2
v 31 7
v 32 11
v 33 6
v 34 0
v 35 2
v 36 1
v 37 3
v 38 4
v 39 10
v 40 8
v 41 8
v 42 12
v 43 7
v 44 4
v 45 10
v 46 9
v 47 2
v 48 0
v 49 3
v 50 1
v 51 9
v 52 2
v 53 5
v 54 8
v 55 0
v 56 12
v 57 1
v 58 7
v 59 4
v 60 11
v 61 11
v 62 8
v 63 9
v 64 2
v 65 3
v 66 5
v 67 4
v 68 6
v 69 0
v 70 12
v 71 12
v 72 3
v 73 10
v 74 5
v 75 6
v 76 0
v 77 7
v 78 2
v 79 8
v 80 4
v 81 2
v 82 5
v 83 8
v 84 7
v 85 11
v 86 3
v 87 12
v 88 1
v 89 9
v 90 0
v 91 1
v 92 0
v 93 11
v 94 6
v 95 12
v 96 4
v 97 9
v 98 10
v 99 2
v 100 3
